; Constants for wave and particle states of an electron
(declare-const wave Real)
(declare-const particle Real)
(declare-const electron_state Real)

; Axiom: Wave-particle duality - an electron can be in both wave and particle states simultaneously
; Simplified: The state of the electron encompasses both aspects
(assert (exists ((w Real) (p Real)) (and (= w wave) (= p particle) (= electron_state (+ w p)))))

; No contradiction; duality is compatible
(check-sat)